(declare-const main____CPAchecker_TMP_3 Int)
(declare-const |havoc:12:62:258:276:416| Int)
(declare-const havoc Int)
(declare-const |phi_main____CPAchecker_TMP_1:256:257:275:415| Int)
(declare-const __VERIFIER_assert__cond___11 Int)
(declare-const |havoc:26:64:212:288:428| Int)
(declare-const |main____CPAchecker_TMP_1':153:167:172:271:411| Int)
(declare-const |main____CPAchecker_TMP_3':226:255:269:287:427| Int)
(declare-const |__VERIFIER_assert__cond___11':227:254:268:286:426| Int)
(declare-const |main__cp':152:170:175:274:414| Int)
(declare-const __VERIFIER_assert__cond___15 Int)
(declare-const |havoc:21:63:259:277:417| Int)
(declare-const |havoc:9:61:176:409| Int)
(declare-const __VERIFIER_assert__cond___16 Int)
(declare-const __VERIFIER_assert__cond___12 Int)
(declare-const |main__c':223:250:264:282:422| Int)
(declare-const main____CPAchecker_TMP_1 Int)
(declare-const |K:245:246:260:278:418| Int)
(declare-const |__VERIFIER_assert__cond___12':228:253:267:285:425| Int)
(declare-const |havoc:1| Int)
(declare-const |__VERIFIER_assert__cond___14':230:251:265:283:423| Int)
(declare-const |main__cp':152:248:262:280:420| Int)
(declare-const __VERIFIER_assert__cond___13 Int)
(declare-const |havoc:2| Int)
(declare-const |__VERIFIER_assert__cond___13':229:252:266:284:424| Int)
(declare-const __VERIFIER_assert__cond___10 Int)
(declare-const __VERIFIER_assert__cond___9 Int)
(declare-const __VERIFIER_assert__cond___14 Int)
(declare-const |__VERIFIER_assert__cond___10':225:249:263:281:421| Int)
(declare-const |__VERIFIER_assert__cond___16':155:168:173:272:412| Int)
(declare-const |K:165:166:171:270:410| Int)
(declare-const |__VERIFIER_assert__cond___15':154:169:174:273:413| Int)
(declare-const |__VERIFIER_assert__cond___9':224:247:261:279:419| Int)
(assert (and (<= (+ havoc -1000000) 0) (<= (+ (- havoc) -1000000) 0)
               (<= (+ |havoc:1| -1000000) 0)
               (<= (+ (- |havoc:1|) -1000000) 0)
               (<= (+ |havoc:2| -1000000) 0)
               (<= (+ (- |havoc:2|) -1000000) 0) (< (- havoc) 0)
               (< (- |havoc:1|) 0) (<= (- |havoc:2|) 0) (not (= |havoc:2| 0))
               (<= (+ |havoc:2| (- havoc) 1) 0)
               (not (= (ite (< (+ |havoc:2| (- havoc) -1) 0) 1 0) 0))
               (not (= (ite (<= (+ (- |havoc:2|) 1) 0) 1 0) 0))
               (not (= |havoc:9:61:176:409| 0))
               (not (= (ite (< (+ |havoc:2| (- havoc)) 0) 1 0) 0))
               (not (= (ite (<= (- |havoc:2|) 0) 1 0) 0))
               (or (not (and (<= (- |K:165:166:171:270:410|) 0)
                               (<= |K:165:166:171:270:410| 0)))
                     (= (+ (- main____CPAchecker_TMP_1)
                             |main____CPAchecker_TMP_1':153:167:172:271:411|) 0))
               (or (not (<= (+ (- |K:165:166:171:270:410|) 1) 0))
                     (= |main____CPAchecker_TMP_1':153:167:172:271:411| 0))
               (or (not (and (<= (- |K:165:166:171:270:410|) 0)
                               (<= |K:165:166:171:270:410| 0)))
                     (= (+ (- __VERIFIER_assert__cond___16)
                             |__VERIFIER_assert__cond___16':155:168:173:272:412|) 0))
               (or (not (<= (+ (- |K:165:166:171:270:410|) 1) 0))
                     (= (+ |__VERIFIER_assert__cond___16':155:168:173:272:412|
                             -1) 0))
               (or (not (and (<= (- |K:165:166:171:270:410|) 0)
                               (<= |K:165:166:171:270:410| 0)))
                     (= (+ (- __VERIFIER_assert__cond___15)
                             |__VERIFIER_assert__cond___15':154:169:174:273:413|) 0))
               (or (not (<= (+ (- |K:165:166:171:270:410|) 1) 0))
                     (= (+ |__VERIFIER_assert__cond___15':154:169:174:273:413|
                             -1) 0))
               (or (not (<= (- |K:165:166:171:270:410|) 0))
                     (= (+ |main__cp':152:170:175:274:414|
                             (- |K:165:166:171:270:410|) (- |havoc:2|)) 0))
               (or (and (= |K:165:166:171:270:410| 0)
                          (= (+ __VERIFIER_assert__cond___16
                                  (- |__VERIFIER_assert__cond___16':155:168:173:272:412|)) 0)
                          (= (+ __VERIFIER_assert__cond___15
                                  (- |__VERIFIER_assert__cond___15':154:169:174:273:413|)) 0)
                          (= (+ main____CPAchecker_TMP_1
                                  (- |main____CPAchecker_TMP_1':153:167:172:271:411|)) 0)
                          (= (+ (- |main__cp':152:170:175:274:414|) |havoc:2|) 0))
                     (and (<= (+ (- |K:165:166:171:270:410|) 1) 0)
                            (<= (+ |havoc:2| (- havoc) 2) 0)
                            (<= (+ (- |havoc:2|) 1) 0)
                            (= (+ |__VERIFIER_assert__cond___16':155:168:173:272:412|
                                    -1) 0)
                            (= (+ |__VERIFIER_assert__cond___15':154:169:174:273:413|
                                    -1) 0)
                            (= |main____CPAchecker_TMP_1':153:167:172:271:411| 0)
                            (<= (+ |main__cp':152:170:175:274:414| (- 
                                     havoc) 1) 0)
                            (<= (+ (- |main__cp':152:170:175:274:414|) 2) 0)))
               (<= (- |K:165:166:171:270:410|) 0) (< (- havoc) 0)
               (< (- |main__cp':152:170:175:274:414|) 0)
               (or (and (<= (+ (- |main__cp':152:170:175:274:414|) havoc -1) 0)
                          (<= (+ |main__cp':152:170:175:274:414| (- havoc) 1) 0)
                          (= (+ (- |phi_main____CPAchecker_TMP_1:256:257:275:415|)
                                  |main____CPAchecker_TMP_1':153:167:172:271:411|) 0))
                     (and (or (< (+ |main__cp':152:170:175:274:414| (- 
                                      havoc) 1) 0)
                                (< (+ (- |main__cp':152:170:175:274:414|)
                                        havoc -1) 0))
                            (not (= |havoc:12:62:258:276:416| 0))
                            (= (+ |havoc:12:62:258:276:416|
                                    (- |phi_main____CPAchecker_TMP_1:256:257:275:415|)) 0)))
               (not (= (ite (< (+ |main__cp':152:170:175:274:414| (- havoc)) 0)
                            1 0) 0))
               (not (= (ite (<= (- |main__cp':152:170:175:274:414|) 0) 1 0) 0))
               (not (= (+ |main__cp':152:170:175:274:414| (- havoc) 1) 0))
               (not (= (ite (< (+ |main__cp':152:170:175:274:414| (- havoc) 1) 0)
                            1 0) 0))
               (not (= (ite (<= (+ (- |main__cp':152:170:175:274:414|) -1) 0)
                            1 0) 0))
               (not (= (+ |main__cp':152:170:175:274:414| (- havoc) 2) 0))
               (not (= |havoc:21:63:259:277:417| 0))
               (not (= (ite (< (+ |main__cp':152:170:175:274:414| (- havoc) 1) 0)
                            1 0) 0))
               (not (= (ite (<= (+ (- |main__cp':152:170:175:274:414|) -1) 0)
                            1 0) 0))
               (or (not (and (<= (- |K:245:246:260:278:418|) 0)
                               (<= |K:245:246:260:278:418| 0)))
                     (= (+ (- __VERIFIER_assert__cond___9)
                             |__VERIFIER_assert__cond___9':224:247:261:279:419|) 0))
               (or (not (<= (+ (- |K:245:246:260:278:418|) 1) 0))
                     (= (+ |__VERIFIER_assert__cond___9':224:247:261:279:419|
                             -1) 0))
               (or (not (<= (- |K:245:246:260:278:418|) 0))
                     (= (+ |main__cp':152:248:262:280:420|
                             (- |K:245:246:260:278:418|)
                             (- |main__cp':152:170:175:274:414|) -1) 0))
               (or (not (and (<= (- |K:245:246:260:278:418|) 0)
                               (<= |K:245:246:260:278:418| 0)))
                     (= (+ (- __VERIFIER_assert__cond___10)
                             |__VERIFIER_assert__cond___10':225:249:263:281:421|) 0))
               (or (not (<= (+ (- |K:245:246:260:278:418|) 1) 0))
                     (= (+ |__VERIFIER_assert__cond___10':225:249:263:281:421|
                             -1) 0))
               (or (not (<= (- |K:245:246:260:278:418|) 0))
                     (<= (+ |main__c':223:250:264:282:422|
                              (- |K:245:246:260:278:418|)) 0))
               (or (not (<= (- |K:245:246:260:278:418|) 0))
                     (<= (- |main__c':223:250:264:282:422|) 0))
               (or (and (= |K:245:246:260:278:418| 0)
                          (= (+ (- |__VERIFIER_assert__cond___14':230:251:265:283:423|)
                                  __VERIFIER_assert__cond___14) 0)
                          (= (+ (- |__VERIFIER_assert__cond___13':229:252:266:284:424|)
                                  __VERIFIER_assert__cond___13) 0)
                          (= (+ (- |__VERIFIER_assert__cond___12':228:253:267:285:425|)
                                  __VERIFIER_assert__cond___12) 0)
                          (= (+ (- |__VERIFIER_assert__cond___11':227:254:268:286:426|)
                                  __VERIFIER_assert__cond___11) 0)
                          (= (+ (- |main____CPAchecker_TMP_3':226:255:269:287:427|)
                                  main____CPAchecker_TMP_3) 0)
                          (= (+ __VERIFIER_assert__cond___10
                                  (- |__VERIFIER_assert__cond___10':225:249:263:281:421|)) 0)
                          (= (+ __VERIFIER_assert__cond___9
                                  (- |__VERIFIER_assert__cond___9':224:247:261:279:419|)) 0)
                          (= (- |main__c':223:250:264:282:422|) 0)
                          (= (+ (- |main__cp':152:248:262:280:420|)
                                  |main__cp':152:170:175:274:414| 1) 0))
                     (and (<= (+ (- |K:245:246:260:278:418|) 1) 0)
                            (<= (+ |main__cp':152:170:175:274:414| (- 
                                     havoc) 3) 0) (<= (+ (- |havoc:1|) 2) 0)
                            (<= (- |main__cp':152:170:175:274:414|) 0)
                            (= (+ |__VERIFIER_assert__cond___10':225:249:263:281:421|
                                    -1) 0)
                            (= (+ |__VERIFIER_assert__cond___9':224:247:261:279:419|
                                    -1) 0)
                            (<= (+ |main__cp':152:248:262:280:420| (- 
                                     havoc) 1) 0)
                            (<= (+ |main__c':223:250:264:282:422|
                                     (- |havoc:1|) 1) 0)
                            (<= (+ (- |havoc:1|) 2) 0)
                            (<= (- |main__c':223:250:264:282:422|) 0)
                            (<= (+ (- |main__cp':152:248:262:280:420|) 2) 0)))
               (<= (- |K:245:246:260:278:418|) 0) (< (- |havoc:1|) 0)
               (<= (- |main__c':223:250:264:282:422|) 0) (< (- havoc) 0)
               (< (- |main__cp':152:248:262:280:420|) 0)
               (or (< (+ |main__cp':152:248:262:280:420| (- havoc) 1) 0)
                     (< (+ (- |main__cp':152:248:262:280:420|) havoc -1) 0))
               (< (+ |main__c':223:250:264:282:422| (- |havoc:1|) 1) 0)
               (not (= (ite (< (+ |main__cp':152:248:262:280:420| (- havoc)) 0)
                            1 0) 0))
               (not (= (ite (<= (- |main__cp':152:248:262:280:420|) 0) 1 0) 0))
               (not (= |havoc:26:64:212:288:428| 0))
               (= (ite (< (+ |main__c':223:250:264:282:422| (- |havoc:1|) 1) 0)
                       1 0) 0)))
(check-sat)
